NAME : covtype.-5126267.tour
COMMENT : Length = -5126267
COMMENT : Found by LKH [Keld Helsgaun] Fri Jul  2 10:21:08 2021
TYPE : TOUR
DIMENSION : 54
TOUR_SECTION
1
3
6
11
43
41
32
48
49
16
42
28
23
51
39
54
21
37
12
36
45
27
53
18
29
38
33
30
31
22
19
17
47
15
50
35
40
34
25
52
44
20
14
24
26
46
13
10
8
2
9
7
4
5
-1
EOF
